 vasp.5.3.6 23Jan15 (build Feb 02 2016 19:35:31) gamma-only

 executed on           IFC91_ompi date 2016.02.07  22:58:40

 INCAR:
 POTCAR:    PAW_PBE C_GW_new 19Mar2012

 POTCAR:    PAW_PBE C_GW_new 19Mar2012
   VRHFIN =C: s2p2

   TITEL  = PAW_PBE C_GW_new 19Mar2012
   POMASS =   12.011; ZVAL   =    4.000    mass and valenz
   ENMAX  =  413.992; ENMIN  =  310.494 eV

  PAW_PBE C_GW_new 19Mar2012            :

 POSCAR: C
  positions in cartesian coordinates
 exchange correlation table for  LEXCH =        8
   RHO(1)=    0.500       N(1)  =     2000
   RHO(2)=  100.500       N(2)  =     4000

 ion  position               nearest neighbor table
   1  0.000  0.000  0.000-   2 1.54  20 1.54  38 1.54  74 1.54
   2  0.062  0.062  0.062-   1 1.54   3 1.54   5 1.54   9 1.54
   3  0.000  0.000  0.250-   2 1.54   4 1.54  40 1.54  76 1.54
   4  0.062  0.062  0.312-   3 1.54   7 1.54  11 1.54  17 1.54
   5  0.000  0.250  0.000-   2 1.54   6 1.54  24 1.54  78 1.54
   6  0.062  0.312  0.062-   5 1.54   7 1.54  13 1.54  33 1.54
   7  0.000  0.250  0.250-   4 1.54   6 1.54   8 1.54  80 1.54
   8  0.062  0.312  0.312-   7 1.54  15 1.54  21 1.54  35 1.54
   9  0.250  0.000  0.000-   2 1.54  10 1.54  28 1.54  46 1.54
  10  0.312  0.062  0.062-   9 1.54  11 1.54  13 1.54  65 1.54
  11  0.250  0.000  0.250-   4 1.54  10 1.54  12 1.54  48 1.54
  12  0.312  0.062  0.312-  11 1.54  15 1.54  25 1.54  67 1.54
  13  0.250  0.250  0.000-   6 1.54  10 1.54  14 1.54  32 1.54
  14  0.312  0.312  0.062-  13 1.54  15 1.54  41 1.54  69 1.54
  15  0.250  0.250  0.250-   8 1.54  12 1.54  14 1.54  16 1.54
  16  0.312  0.312  0.312-  15 1.54  29 1.54  43 1.54  71 1.54
  17  0.000  0.000  0.500-   4 1.54  18 1.54  54 1.54  90 1.54
  18  0.062  0.062  0.562-  17 1.54  19 1.54  21 1.54  25 1.54
  19  0.000  0.000  0.750-  18 1.54  20 1.54  56 1.54  92 1.54
  20  0.062  0.062  0.812-   1 1.54  19 1.54  23 1.54  27 1.54
  21  0.000  0.250  0.500-   8 1.54  18 1.54  22 1.54  94 1.54
  22  0.062  0.312  0.562-  21 1.54  23 1.54  29 1.54  49 1.54
  23  0.000  0.250  0.750-  20 1.54  22 1.54  24 1.54  96 1.54
  24  0.062  0.312  0.812-   5 1.54  23 1.54  31 1.54  51 1.54
  25  0.250  0.000  0.500-  12 1.54  18 1.54  26 1.54  62 1.54
  26  0.312  0.062  0.562-  25 1.54  27 1.54  29 1.54  81 1.54
  27  0.250  0.000  0.750-  20 1.54  26 1.54  28 1.54  64 1.54
  28  0.312  0.062  0.812-   9 1.54  27 1.54  31 1.54  83 1.54
  29  0.250  0.250  0.500-  16 1.54  22 1.54  26 1.54  30 1.54
  30  0.312  0.312  0.562-  29 1.54  31 1.54  57 1.54  85 1.54
  31  0.250  0.250  0.750-  24 1.54  28 1.54  30 1.54  32 1.54
  32  0.312  0.312  0.812-  13 1.54  31 1.54  59 1.54  87 1.54
  33  0.000  0.500  0.000-   6 1.54  34 1.54  52 1.54 106 1.54
  34  0.062  0.562  0.062-  33 1.54  35 1.54  37 1.54  41 1.54
  35  0.000  0.500  0.250-   8 1.54  34 1.54  36 1.54 108 1.54
  36  0.062  0.562  0.312-  35 1.54  39 1.54  43 1.54  49 1.54
  37  0.000  0.750  0.000-  34 1.54  38 1.54  56 1.54 110 1.54
  38  0.062  0.812  0.062-   1 1.54  37 1.54  39 1.54  45 1.54
  39  0.000  0.750  0.250-  36 1.54  38 1.54  40 1.54 112 1.54
  40  0.062  0.812  0.312-   3 1.54  39 1.54  47 1.54  53 1.54
  41  0.250  0.500  0.000-  14 1.54  34 1.54  42 1.54  60 1.54
  42  0.312  0.562  0.062-  41 1.54  43 1.54  45 1.54  97 1.54
  43  0.250  0.500  0.250-  16 1.54  36 1.54  42 1.54  44 1.54
  44  0.312  0.562  0.312-  43 1.54  47 1.54  57 1.54  99 1.54
  45  0.250  0.750  0.000-  38 1.54  42 1.54  46 1.54  64 1.54
  46  0.312  0.812  0.062-   9 1.54  45 1.54  47 1.54 101 1.54
  47  0.250  0.750  0.250-  40 1.54  44 1.54  46 1.54  48 1.54
  48  0.312  0.812  0.312-  11 1.54  47 1.54  61 1.54 103 1.54
  49  0.000  0.500  0.500-  22 1.54  36 1.54  50 1.54 122 1.54
  50  0.062  0.562  0.562-  49 1.54  51 1.54  53 1.54  57 1.54
  51  0.000  0.500  0.750-  24 1.54  50 1.54  52 1.54 124 1.54
  52  0.062  0.562  0.812-  33 1.54  51 1.54  55 1.54  59 1.54
  53  0.000  0.750  0.500-  40 1.54  50 1.54  54 1.54 126 1.54
  54  0.062  0.812  0.562-  17 1.54  53 1.54  55 1.54  61 1.54
  55  0.000  0.750  0.750-  52 1.54  54 1.54  56 1.54 128 1.54
  56  0.062  0.812  0.812-  19 1.54  37 1.54  55 1.54  63 1.54
  57  0.250  0.500  0.500-  30 1.54  44 1.54  50 1.54  58 1.54
  58  0.312  0.562  0.562-  57 1.54  59 1.54  61 1.54 113 1.54
  59  0.250  0.500  0.750-  32 1.54  52 1.54  58 1.54  60 1.54
  60  0.312  0.562  0.812-  41 1.54  59 1.54  63 1.54 115 1.54
[...]
 114  0.562  0.562  0.562- 113 1.54 115 1.54 117 1.54 121 1.54
 115  0.500  0.500  0.750-  60 1.54  88 1.54 114 1.54 116 1.54
 116  0.562  0.562  0.812-  97 1.54 115 1.54 119 1.54 123 1.54
 117  0.500  0.750  0.500-  62 1.54 104 1.54 114 1.54 118 1.54
 118  0.562  0.812  0.562-  81 1.54 117 1.54 119 1.54 125 1.54
 119  0.500  0.750  0.750-  64 1.54 116 1.54 118 1.54 120 1.54
 120  0.562  0.812  0.812-  83 1.54 101 1.54 119 1.54 127 1.54
 121  0.750  0.500  0.500-  94 1.54 108 1.54 114 1.54 122 1.54
 122  0.812  0.562  0.562-  49 1.54 121 1.54 123 1.54 125 1.54
 123  0.750  0.500  0.750-  96 1.54 116 1.54 122 1.54 124 1.54
 124  0.812  0.562  0.812-  51 1.54 105 1.54 123 1.54 127 1.54
 125  0.750  0.750  0.500- 112 1.54 118 1.54 122 1.54 126 1.54
 126  0.812  0.812  0.562-  53 1.54  89 1.54 125 1.54 127 1.54
 127  0.750  0.750  0.750- 120 1.54 124 1.54 126 1.54 128 1.54
 128  0.812  0.812  0.812-  55 1.54  91 1.54 109 1.54 127 1.54

  LATTYP: Found a face centered cubic cell.
 ALAT       =    14.2684036126

  Lattice vectors:

 A1 = (   7.1342018063,   7.1342018063,   0.0000000000)
 A2 = (   0.0000000000,   7.1342018063,   7.1342018063)
 A3 = (   7.1342018063,   0.0000000000,   7.1342018063)

Analysis of symmetry for initial positions (statically):
 Subroutine PRICEL returns following result:

[...]

  64 primitive cells build up your supercell.

 Routine SETGRP: Setting up the symmetry group for a
 face centered cubic supercell.

 Subroutine GETGRP returns: Found 48 space group operations
 (whereof 24 operations were pure point group operations)
 out of a pool of 48 trial point group operations.

The static configuration has the point symmetry T_d .
 The point group associated with its full space group is O_h .

Analysis of symmetry for dynamics (positions and initial velocities):
 Subroutine PRICEL returns following result:

[...]

 Routine SETGRP: Setting up the symmetry group for a
 face centered cubic supercell.

 Subroutine GETGRP returns: Found 48 space group operations
 (whereof 24 operations were pure point group operations)
 out of a pool of 48 trial point group operations.

The dynamic configuration has the point symmetry T_d .
 The point group associated with its full space group is O_h .

Analysis of magnetic symmetry:
 Subroutine PRICEL returns following result:

  LATTYP: Found a face centered cubic cell.
 ALAT       =     3.5671009032

  Lattice vectors:

 A1 = (   1.7835504516,   1.7835504516,   0.0000000000)
 A2 = (   0.0000000000,   1.7835504516,   1.7835504516)
 A3 = (   1.7835504516,   0.0000000000,   1.7835504516)

  64 primitive cells build up your supercell.

 Subroutine MAGSYM returns: Found 48 space group operations
 (whereof 24 operations were pure point group operations)
 out of a pool of 48 trial space group operations
 (whereof 24 operations were pure point group operations)
 and found also    64 'primitive' translations

The magnetic configuration has the point symmetry T_d .
 The point group associated with its full space group is O_h .

 KPOINTS: Automatically generated mesh

Automatic generation of k-mesh.
Space group operators:
 irot       det(A)        alpha          n_x          n_y          n_z        tau_x        tau_y        tau_z
    1     1.000000     0.000000     1.000000     0.000000     0.000000     0.000000     0.000000     0.000000
    2     1.000000   120.000000    -0.577350    -0.577350    -0.577350     0.000000     0.000000     0.000000
    3     1.000000   120.000000     0.577350     0.577350     0.577350     0.000000     0.000000     0.000000
    4    -1.000000    90.000000     0.000000    -1.000000     0.000000     0.000000     0.000000     0.000000
    5    -1.000000   180.000000     0.707107     0.707107     0.000000     0.000000     0.000000     0.000000
    6    -1.000000    90.000000     1.000000     0.000000     0.000000     0.000000     0.000000     0.000000
    7     1.000000   180.000000     0.000000     1.000000     0.000000     0.000000     0.000000     0.000000
    8     1.000000   120.000000     0.577350     0.577350    -0.577350     0.000000     0.000000     0.000000
    9     1.000000   120.000000     0.577350    -0.577350    -0.577350     0.000000     0.000000     0.000000
   10    -1.000000    90.000000     0.000000     1.000000     0.000000     0.000000     0.000000     0.000000
   11    -1.000000    90.000000     0.000000     0.000000    -1.000000     0.000000     0.000000     0.000000
   12    -1.000000   180.000000     0.000000     0.707107     0.707107     0.000000     0.000000     0.000000
   13     1.000000   120.000000    -0.577350     0.577350     0.577350     0.000000     0.000000     0.000000
   14     1.000000   120.000000    -0.577350     0.577350    -0.577350     0.000000     0.000000     0.000000
   15     1.000000   180.000000     0.000000     0.000000     1.000000     0.000000     0.000000     0.000000
   16    -1.000000    90.000000    -1.000000     0.000000     0.000000     0.000000     0.000000     0.000000
   17    -1.000000   180.000000     0.707107     0.000000     0.707107     0.000000     0.000000     0.000000
   18    -1.000000    90.000000     0.000000     0.000000     1.000000     0.000000     0.000000     0.000000
   19     1.000000   120.000000    -0.577350    -0.577350     0.577350     0.000000     0.000000     0.000000
   20     1.000000   180.000000     1.000000     0.000000     0.000000     0.000000     0.000000     0.000000
   21     1.000000   120.000000     0.577350    -0.577350     0.577350     0.000000     0.000000     0.000000
   22    -1.000000   180.000000     0.707107    -0.707107     0.000000     0.000000     0.000000     0.000000
   23    -1.000000   180.000000     0.707107     0.000000    -0.707107     0.000000     0.000000     0.000000
   24    -1.000000   180.000000     0.000000    -0.707107     0.707107     0.000000     0.000000     0.000000
   25    -1.000000     0.000000     1.000000     0.000000     0.000000     0.062500     0.062500     0.062500
   26    -1.000000   120.000000    -0.577350    -0.577350    -0.577350     0.062500     0.062500     0.062500
   27    -1.000000   120.000000     0.577350     0.577350     0.577350     0.062500     0.062500     0.062500
   28     1.000000    90.000000     0.000000    -1.000000     0.000000     0.062500     0.062500     0.062500
   29     1.000000   180.000000     0.707107     0.707107     0.000000     0.062500     0.062500     0.062500
   30     1.000000    90.000000     1.000000     0.000000     0.000000     0.062500     0.062500     0.062500
   31    -1.000000   180.000000     0.000000     1.000000     0.000000     0.062500     0.062500     0.062500
   32    -1.000000   120.000000     0.577350     0.577350    -0.577350     0.062500     0.062500     0.062500
[...]

  length of vectors
    10.089284951 10.089284951 10.089284951     0.121390651  0.121390651  0.121390651

 FORCES acting on ions
    electron-ion (+dipol)            ewald-force                    non-local-force                 convergence-correction
   -.183E-04 -.183E-04 -.183E-04   0.542E-13 -.311E-13 -.151E-13   0.645E-19 0.192E-19 0.716E-19   -.649E-08 -.649E-08 -.649E-08
   0.149E-04 0.149E-04 0.149E-04   0.361E-13 -.257E-13 0.120E-12   -.119E-18 -.389E-19 -.411E-19   0.641E-08 0.641E-08 0.641E-08
   -.183E-04 -.183E-04 -.183E-04   -.126E-12 -.382E-13 -.449E-13   0.950E-19 0.343E-19 0.683E-19   -.649E-08 -.649E-08 -.649E-08
   0.149E-04 0.149E-04 0.149E-04   0.435E-13 0.293E-13 0.919E-13   -.599E-19 -.425E-19 -.779E-19   0.641E-08 0.641E-08 0.641E-08
   -.183E-04 -.183E-04 -.183E-04   -.110E-12 -.134E-12 -.551E-13   0.688E-19 0.327E-19 0.770E-19   -.649E-08 -.649E-08 -.649E-08
   0.149E-04 0.149E-04 0.149E-04   0.355E-13 0.115E-13 0.515E-13   -.829E-19 -.198E-19 -.523E-19   0.641E-08 0.641E-08 0.641E-08
   -.183E-04 -.183E-04 -.183E-04   -.137E-12 -.895E-13 -.140E-12   0.111E-18 0.224E-19 0.451E-19   -.649E-08 -.649E-08 -.649E-08
   0.149E-04 0.149E-04 0.149E-04   0.564E-13 0.209E-13 0.112E-12   -.656E-19 -.274E-19 -.881E-19   0.641E-08 0.641E-08 0.641E-08
   -.183E-04 -.183E-04 -.183E-04   -.395E-13 -.116E-12 -.215E-12   0.690E-19 0.285E-19 0.742E-19   -.649E-08 -.649E-08 -.649E-08
   0.149E-04 0.149E-04 0.149E-04   0.844E-13 -.480E-13 0.391E-13   -.118E-18 -.361E-19 -.565E-19   0.641E-08 0.641E-08 0.641E-08
   -.183E-04 -.183E-04 -.183E-04   -.146E-12 -.537E-13 -.115E-12   0.851E-19 0.235E-19 0.634E-19   -.649E-08 -.649E-08 -.649E-08
   0.149E-04 0.149E-04 0.149E-04   0.141E-12 0.866E-14 0.979E-13   -.550E-19 -.452E-19 -.727E-19   0.641E-08 0.641E-08 0.641E-08
   -.183E-04 -.183E-04 -.183E-04   -.335E-13 -.118E-12 -.588E-13   0.799E-19 0.421E-19 0.857E-19   -.649E-08 -.649E-08 -.649E-08
   0.149E-04 0.149E-04 0.149E-04   0.127E-13 0.830E-13 0.124E-12   -.102E-18 -.331E-19 -.445E-19   0.641E-08 0.641E-08 0.641E-08
   -.183E-04 -.183E-04 -.183E-04   -.753E-13 -.853E-13 -.757E-13   0.104E-18 0.335E-19 0.471E-19   -.649E-08 -.649E-08 -.649E-08
   0.149E-04 0.149E-04 0.149E-04   -.667E-14 0.225E-13 0.173E-12   -.659E-19 -.308E-19 -.798E-19   0.641E-08 0.641E-08 0.641E-08
   -.183E-04 -.183E-04 -.183E-04   -.164E-12 -.675E-13 -.497E-13   0.106E-18 0.322E-19 0.396E-19   -.649E-08 -.649E-08 -.649E-08
   0.149E-04 0.149E-04 0.149E-04   0.472E-13 0.302E-13 0.951E-13   -.727E-19 -.402E-19 -.576E-19   0.641E-08 0.641E-08 0.641E-08
   -.183E-04 -.183E-04 -.183E-04   -.159E-12 -.853E-13 -.231E-13   0.798E-19 0.807E-20 0.473E-19   -.649E-08 -.649E-08 -.649E-08
   0.149E-04 0.149E-04 0.149E-04   0.488E-14 0.471E-13 0.764E-13   -.119E-18 -.305E-19 -.333E-19   0.641E-08 0.641E-08 0.641E-08
   -.183E-04 -.183E-04 -.183E-04   -.122E-12 -.897E-13 -.826E-13   0.111E-18 0.341E-19 0.325E-19   -.649E-08 -.649E-08 -.649E-08
   0.149E-04 0.149E-04 0.149E-04   0.130E-12 0.888E-15 0.864E-13   -.809E-19 -.218E-19 -.598E-19   0.641E-08 0.641E-08 0.641E-08
   -.183E-04 -.183E-04 -.183E-04   -.153E-12 -.575E-13 -.540E-13   0.822E-19 0.262E-19 0.484E-19   -.649E-08 -.649E-08 -.649E-08
   0.149E-04 0.149E-04 0.149E-04   -.111E-13 0.724E-13 0.171E-12   -.116E-18 -.203E-19 -.216E-19   0.641E-08 0.641E-08 0.641E-08
   -.183E-04 -.183E-04 -.183E-04   -.158E-13 -.684E-13 -.133E-12   0.113E-18 0.431E-19 0.416E-19   -.649E-08 -.649E-08 -.649E-08
   0.149E-04 0.149E-04 0.149E-04   0.697E-13 0.200E-13 0.360E-13   -.793E-19 -.373E-19 -.557E-19   0.641E-08 0.641E-08 0.641E-08
   -.183E-04 -.183E-04 -.183E-04   -.631E-13 -.770E-13 -.145E-12   0.714E-19 0.207E-19 0.524E-19   -.649E-08 -.649E-08 -.649E-08
   0.149E-04 0.149E-04 0.149E-04   0.144E-12 -.240E-13 0.153E-12   -.112E-18 -.316E-19 -.332E-19   0.641E-08 0.641E-08 0.641E-08
   -.183E-04 -.183E-04 -.183E-04   -.668E-13 -.113E-12 -.934E-13   0.107E-18 0.300E-19 0.168E-19   -.649E-08 -.649E-08 -.649E-08
   0.149E-04 0.149E-04 0.149E-04   0.673E-13 0.974E-13 0.125E-12   -.727E-19 -.176E-19 -.585E-19   0.641E-08 0.641E-08 0.641E-08
   -.183E-04 -.183E-04 -.183E-04   -.107E-12 -.825E-13 -.477E-13   0.784E-19 0.277E-19 0.573E-19   -.649E-08 -.649E-08 -.649E-08
   0.149E-04 0.149E-04 0.149E-04   -.220E-13 0.194E-12 0.119E-13   -.116E-18 -.123E-19 -.200E-19   0.641E-08 0.641E-08 0.641E-08
   -.183E-04 -.183E-04 -.183E-04   0.178E-13 -.107E-12 -.258E-13   0.909E-19 0.346E-19 0.641E-19   -.649E-08 -.649E-08 -.649E-08
   0.149E-04 0.149E-04 0.149E-04   -.195E-13 0.320E-13 0.109E-12   -.993E-19 -.351E-19 -.485E-19   0.641E-08 0.641E-08 0.641E-08
   -.183E-04 -.183E-04 -.183E-04   -.195E-12 -.244E-12 -.877E-13   0.973E-19 0.342E-19 0.365E-19   -.649E-08 -.649E-08 -.649E-08
   0.149E-04 0.149E-04 0.149E-04   0.266E-13 0.255E-14 0.799E-13   -.557E-19 -.269E-20 -.733E-19   0.641E-08 0.641E-08 0.641E-08
   -.183E-04 -.183E-04 -.183E-04   -.156E-12 -.156E-12 -.169E-13   0.743E-19 0.207E-19 0.572E-19   -.649E-08 -.649E-08 -.649E-08
   0.149E-04 0.149E-04 0.149E-04   0.977E-13 -.329E-13 0.123E-12   -.107E-18 -.288E-19 -.397E-19   0.641E-08 0.641E-08 0.641E-08
   -.183E-04 -.183E-04 -.183E-04   -.973E-13 -.138E-12 -.162E-12   0.851E-19 0.354E-19 0.749E-19   -.649E-08 -.649E-08 -.649E-08
   0.149E-04 0.149E-04 0.149E-04   0.422E-13 -.222E-14 0.986E-13   -.512E-19 -.222E-19 -.714E-19   0.641E-08 0.641E-08 0.641E-08
   -.183E-04 -.183E-04 -.183E-04   -.293E-13 -.514E-13 -.115E-12   0.980E-19 0.344E-19 0.647E-19   -.649E-08 -.649E-08 -.649E-08
   0.149E-04 0.149E-04 0.149E-04   0.360E-13 0.622E-13 0.125E-12   -.972E-19 -.250E-19 -.559E-19   0.641E-08 0.641E-08 0.641E-08
   -.183E-04 -.183E-04 -.183E-04   -.671E-13 -.776E-13 -.763E-13   0.929E-19 0.320E-19 0.455E-19   -.649E-08 -.649E-08 -.649E-08
   0.149E-04 0.149E-04 0.149E-04   0.184E-12 0.146E-12 0.132E-12   -.546E-19 -.234E-20 -.600E-19   0.641E-08 0.641E-08 0.641E-08
   -.183E-04 -.183E-04 -.183E-04   -.198E-13 -.808E-13 -.163E-12   0.782E-19 0.278E-19 0.674E-19   -.649E-08 -.649E-08 -.649E-08
   0.149E-04 0.149E-04 0.149E-04   0.231E-13 0.127E-12 0.165E-12   -.111E-18 -.335E-19 -.577E-19   0.641E-08 0.641E-08 0.641E-08
   -.183E-04 -.183E-04 -.183E-04   -.117E-13 -.886E-13 -.606E-13   0.845E-19 0.326E-19 0.706E-19   -.649E-08 -.649E-08 -.649E-08
   0.149E-04 0.149E-04 0.149E-04   0.635E-13 0.174E-13 0.238E-12   -.659E-19 -.223E-19 -.630E-19   0.641E-08 0.641E-08 0.641E-08
   -.183E-04 -.183E-04 -.183E-04   -.203E-12 -.157E-12 -.346E-13   0.117E-18 0.322E-19 0.402E-19   -.649E-08 -.649E-08 -.649E-08
   0.149E-04 0.149E-04 0.149E-04   0.480E-13 0.178E-13 0.142E-12   -.832E-19 -.137E-19 -.659E-19   0.641E-08 0.641E-08 0.641E-08
   -.183E-04 -.183E-04 -.183E-04   -.194E-12 -.153E-12 -.355E-14   0.691E-19 0.184E-19 0.567E-19   -.649E-08 -.649E-08 -.649E-08
   0.149E-04 0.149E-04 0.149E-04   0.426E-13 0.586E-13 0.782E-13   -.109E-18 -.307E-19 -.453E-19   0.641E-08 0.641E-08 0.641E-08
   -.183E-04 -.183E-04 -.183E-04   -.184E-12 -.110E-12 -.568E-13   0.109E-18 0.199E-19 0.466E-19   -.649E-08 -.649E-08 -.649E-08
   0.149E-04 0.149E-04 0.149E-04   0.666E-13 0.533E-13 0.135E-12   -.945E-19 -.514E-19 -.764E-19   0.641E-08 0.641E-08 0.641E-08
   -.183E-04 -.183E-04 -.183E-04   -.213E-12 -.711E-13 -.142E-13   0.934E-19 0.994E-20 0.499E-19   -.649E-08 -.649E-08 -.649E-08
   0.149E-04 0.149E-04 0.149E-04   0.711E-14 0.284E-13 0.165E-12   -.110E-18 -.357E-19 -.385E-19   0.641E-08 0.641E-08 0.641E-08
   -.183E-04 -.183E-04 -.183E-04   -.633E-13 -.966E-13 -.116E-12   0.111E-18 0.350E-19 0.458E-19   -.649E-08 -.649E-08 -.649E-08
   0.149E-04 0.149E-04 0.149E-04   0.822E-13 0.941E-13 0.102E-12   -.851E-19 -.182E-19 -.522E-19   0.641E-08 0.641E-08 0.641E-08
   -.183E-04 -.183E-04 -.183E-04   -.808E-13 -.147E-12 -.986E-13   0.735E-19 0.233E-19 0.627E-19   -.649E-08 -.649E-08 -.649E-08
   0.149E-04 0.149E-04 0.149E-04   0.728E-13 0.564E-13 0.206E-12   -.112E-18 -.375E-19 -.380E-19   0.641E-08 0.641E-08 0.641E-08
[...]
   -.183E-04 -.183E-04 -.183E-04   0.491E-14 -.652E-13 -.115E-12   0.787E-19 0.178E-19 0.571E-19   -.649E-08 -.649E-08 -.649E-08
   0.149E-04 0.149E-04 0.149E-04   0.506E-13 0.191E-12 0.608E-13   -.116E-18 -.431E-19 -.384E-19   0.641E-08 0.641E-08 0.641E-08
   -.183E-04 -.183E-04 -.183E-04   -.167E-12 -.727E-14 -.104E-12   0.109E-18 0.269E-19 0.402E-19   -.649E-08 -.649E-08 -.649E-08
   0.149E-04 0.149E-04 0.149E-04   0.120E-12 0.915E-13 0.118E-12   -.924E-19 -.364E-19 -.734E-19   0.641E-08 0.641E-08 0.641E-08
   -.183E-04 -.183E-04 -.183E-04   -.551E-13 0.444E-13 -.737E-13   0.843E-19 0.156E-19 0.501E-19   -.649E-08 -.649E-08 -.649E-08
   0.149E-04 0.149E-04 0.149E-04   0.568E-13 0.110E-12 0.220E-12   -.104E-18 -.386E-19 -.297E-19   0.641E-08 0.641E-08 0.641E-08
   -.183E-04 -.183E-04 -.183E-04   -.572E-13 -.561E-13 -.117E-12   0.119E-18 0.343E-19 0.432E-19   -.649E-08 -.649E-08 -.649E-08
   0.149E-04 0.149E-04 0.149E-04   0.103E-12 0.298E-13 0.138E-12   -.837E-19 -.108E-19 -.623E-19   0.641E-08 0.641E-08 0.641E-08
   -.183E-04 -.183E-04 -.183E-04   -.777E-13 -.417E-13 -.826E-13   0.818E-19 0.158E-19 0.599E-19   -.649E-08 -.649E-08 -.649E-08
   0.149E-04 0.149E-04 0.149E-04   0.142E-12 0.117E-12 0.746E-13   -.107E-18 -.313E-19 -.456E-19   0.641E-08 0.641E-08 0.641E-08
   -.183E-04 -.183E-04 -.183E-04   -.604E-13 -.151E-13 -.968E-13   0.114E-18 0.228E-19 0.470E-19   -.649E-08 -.649E-08 -.649E-08
   0.149E-04 0.149E-04 0.149E-04   0.117E-12 0.512E-16 0.533E-13   -.102E-18 -.432E-19 -.793E-19   0.641E-08 0.641E-08 0.641E-08
   -.183E-04 -.183E-04 -.183E-04   -.355E-13 0.426E-13 -.142E-12   0.808E-19 0.177E-19 0.410E-19   -.649E-08 -.649E-08 -.649E-08
   0.149E-04 0.149E-04 0.149E-04   -.284E-13 -.284E-13 0.142E-13   -.106E-18 -.287E-19 -.217E-19   0.641E-08 0.641E-08 0.641E-08
   -.213E-03 -.213E-03 -.213E-03   0.224E-12 -.407E-12 0.108E-12   0.806E-19 0.117E-19 -.182E-19   -.551E-08 -.551E-08 -.551E-08

 POSITION                                       TOTAL-FORCE (eV/Angst)
      0.00000      0.00000      0.00000        -0.000000     -0.000000     -0.000000
      0.89178      0.89178      0.89178         0.000000      0.000000      0.000000
      1.78355      0.00000      1.78355        -0.000000     -0.000000     -0.000000
      2.67533      0.89178      2.67533         0.000000      0.000000      0.000000
      0.00000      1.78355      1.78355        -0.000000     -0.000000     -0.000000
      0.89178      2.67533      2.67533         0.000000      0.000000      0.000000
      1.78355      1.78355      3.56710        -0.000000     -0.000000     -0.000000
      2.67533      2.67533      4.45888         0.000000      0.000000      0.000000
      1.78355      1.78355      0.00000        -0.000000     -0.000000     -0.000000
      2.67533      2.67533      0.89178         0.000000      0.000000      0.000000
      3.56710      1.78355      1.78355        -0.000000     -0.000000     -0.000000
      4.45888      2.67533      2.67533         0.000000      0.000000      0.000000
      1.78355      3.56710      1.78355        -0.000000     -0.000000     -0.000000
      2.67533      4.45888      2.67533         0.000000      0.000000      0.000000
      3.56710      3.56710      3.56710        -0.000000     -0.000000     -0.000000
      4.45888      4.45888      4.45888         0.000000      0.000000      0.000000
      3.56710      0.00000      3.56710        -0.000000     -0.000000     -0.000000
      4.45888      0.89178      4.45888         0.000000     -0.000000      0.000000
      5.35065      0.00000      5.35065        -0.000000      0.000000     -0.000000
      6.24243      0.89178      6.24243         0.000000      0.000000      0.000000
      3.56710      1.78355      5.35065        -0.000000     -0.000000     -0.000000
      4.45888      2.67533      6.24243         0.000000      0.000000      0.000000
      5.35065      1.78355      7.13420        -0.000000     -0.000000     -0.000000
      6.24243      2.67533      8.02598         0.000000     -0.000000      0.000000
      5.35065      1.78355      3.56710        -0.000000     -0.000000     -0.000000
      6.24243      2.67533      4.45888         0.000000     -0.000000      0.000000
      7.13420      1.78355      5.35065        -0.000000      0.000000     -0.000000
      8.02598      2.67533      6.24243         0.000000      0.000000      0.000000
      5.35065      3.56710      5.35065        -0.000000     -0.000000     -0.000000
      6.24243      4.45888      6.24243         0.000000      0.000000      0.000000
      7.13420      3.56710      7.13420        -0.000000      0.000000     -0.000000
      8.02598      4.45888      8.02598         0.000000      0.000000      0.000000
      0.00000      3.56710      3.56710        -0.000000     -0.000000     -0.000000
      0.89178      4.45888      4.45888         0.000000      0.000000      0.000000
      1.78355      3.56710      5.35065        -0.000000     -0.000000     -0.000000
      2.67533      4.45888      6.24243         0.000000      0.000000      0.000000
      0.00000      5.35065      5.35065        -0.000000     -0.000000     -0.000000
      0.89178      6.24243      6.24243         0.000000      0.000000      0.000000
      1.78355      5.35065      7.13420        -0.000000     -0.000000     -0.000000
      2.67533      6.24243      8.02598         0.000000      0.000000      0.000000
      1.78355      5.35065      3.56710        -0.000000     -0.000000     -0.000000
      2.67533      6.24243      4.45888         0.000000      0.000000      0.000000
      3.56710      5.35065      5.35065        -0.000000     -0.000000     -0.000000
      4.45888      6.24243      6.24243         0.000000      0.000000      0.000000
      1.78355      7.13420      5.35065        -0.000000      0.000000     -0.000000
      2.67533      8.02598      6.24243         0.000000      0.000000      0.000000
      3.56710      7.13420      7.13420        -0.000000     -0.000000     -0.000000
      4.45888      8.02598      8.02598         0.000000      0.000000      0.000000
      3.56710      3.56710      7.13420        -0.000000     -0.000000     -0.000000
      4.45888      4.45888      8.02598         0.000000     -0.000000      0.000000
      5.35065      3.56710      8.91775        -0.000000     -0.000000     -0.000000
      6.24243      4.45888      9.80953         0.000000      0.000000      0.000000
      3.56710      5.35065      8.91775        -0.000000     -0.000000     -0.000000
      4.45888      6.24243      9.80953         0.000000     -0.000000      0.000000
      5.35065      5.35065     10.70130        -0.000000      0.000000     -0.000000
      6.24243      6.24243     11.59308         0.000000     -0.000000      0.000000
      5.35065      5.35065      7.13420        -0.000000     -0.000000     -0.000000
      6.24243      6.24243      8.02598         0.000000     -0.000000      0.000000
      7.13420      5.35065      8.91775        -0.000000     -0.000000     -0.000000
      8.02598      6.24243      9.80953         0.000000      0.000000      0.000000
[...]
      8.02598      8.02598      8.02598         0.000000     -0.000000      0.000000
      8.91775      7.13420      8.91775        -0.000000     -0.000000     -0.000000
      9.80953      8.02598      9.80953         0.000000      0.000000      0.000000
      7.13420      8.91775      8.91775        -0.000000     -0.000000     -0.000000
      8.02598      9.80953      9.80953         0.000000     -0.000000      0.000000
      8.91775      8.91775     10.70130        -0.000000      0.000000     -0.000000
      9.80953      9.80953     11.59308         0.000000     -0.000000      0.000000
      8.91775      8.91775      7.13420        -0.000000     -0.000000     -0.000000
      9.80953      9.80953      8.02598         0.000000     -0.000000      0.000000
     10.70130      8.91775      8.91775        -0.000000     -0.000000     -0.000000
     11.59308      9.80953      9.80953         0.000000     -0.000000      0.000000
      8.91775     10.70130      8.91775        -0.000000     -0.000000     -0.000000
      9.80953     11.59308      9.80953         0.000000     -0.000000      0.000000
     10.70130     10.70130     10.70130        -0.000000      0.000000     -0.000000
     11.59308     11.59308     11.59308         0.000000     -0.000000      0.000000
    total drift:                               -0.000213     -0.000213     -0.000213

  FREE ENERGIE OF THE ION-ELECTRON SYSTEM (eV)
  free  energy   TOTEN  =     -1150.87704040 eV

  energy  without entropy=    -1150.91182784  energy(sigma->0) =    -1150.88863621

 reached required accuracy - stopping structural energy minimisation
 writing wavefunctions